
Gurobi 10.0.1 (linux64) logging started Sun Nov 26 16:56:28 2023

Set parameter LogFile to value "ArtificialInstance/ExperimentV2/S4T3K3/BaRo/gurobi91.txt"
Gurobi Optimizer version 10.0.1 build v10.0.1rc0 (linux64)

CPU model: AMD EPYC 7H12 64-Core Processor, instruction set [SSE2|AVX|AVX2]
Thread count: 128 physical cores, 128 logical processors, using up to 32 threads

Academic license 656792 - for non-commercial use only - registered to b.___@student.vu.nl
Optimize a model with 3474 rows, 5201 columns and 18084 nonzeros
Model fingerprint: 0xcca6c539
Variable types: 1 continuous, 5200 integer (5200 binary)
Coefficient statistics:
  Matrix range     [1e+00, 4e+01]
  Objective range  [1e+00, 2e+01]
  Bounds range     [1e+00, 1e+00]
  RHS range        [1e+00, 1e+00]
Found heuristic solution: objective 640.4029467
Presolve time: 0.03s
Presolved: 3474 rows, 5201 columns, 18084 nonzeros
Variable types: 1 continuous, 5200 integer (5200 binary)

Root relaxation: objective 5.382560e+01, 3850 iterations, 0.21 seconds (0.19 work units)

    Nodes    |    Current Node    |     Objective Bounds      |     Work
 Expl Unexpl |  Obj  Depth IntInf | Incumbent    BestBd   Gap | It/Node Time

     0     0   53.82560    0  840  640.40295   53.82560  91.6%     -    0s
H    0     0                     279.1271486   53.82560  80.7%     -    0s
H    0     0                     105.5439583   53.82560  49.0%     -    0s
     0     0   60.41184    0 1218  105.54396   60.41184  42.8%     -    0s
     0     0   65.30639    0 1202  105.54396   65.30639  38.1%     -    0s
     0     0   65.30639    0 1198  105.54396   65.30639  38.1%     -    0s
     0     0   67.13485    0 1158  105.54396   67.13485  36.4%     -    1s
     0     0   67.13848    0 1089  105.54396   67.13848  36.4%     -    1s
H    0     0                      94.6581353   67.75417  28.4%     -    1s
H    0     0                      94.2781294   67.75417  28.1%     -    1s
H    0     0                      92.7696258   67.75417  27.0%     -    1s
     0     0   67.75417    0 1191   92.76963   67.75417  27.0%     -    1s
     0     0   67.75417    0 1189   92.76963   67.75417  27.0%     -    1s
     0     0   68.38318    0 1222   92.76963   68.38318  26.3%     -    1s
     0     0   68.41895    0 1235   92.76963   68.41895  26.2%     -    2s
     0     0   68.43761    0 1184   92.76963   68.43761  26.2%     -    2s
     0     0   68.44027    0 1186   92.76963   68.44027  26.2%     -    2s
     0     0   69.32769    0 1171   92.76963   69.32769  25.3%     -    2s
     0     0   69.32769    0 1164   92.76963   69.32769  25.3%     -    2s
H    0     0                      85.7437064   69.78788  18.6%     -    2s
     0     0   69.78788    0 1100   85.74371   69.78788  18.6%     -    2s
     0     0   69.85408    0 1118   85.74371   69.85408  18.5%     -    2s
     0     0   69.91363    0 1089   85.74371   69.91363  18.5%     -    2s
     0     0   69.91366    0 1100   85.74371   69.91366  18.5%     -    2s
     0     0   70.08944    0 1118   85.74371   70.08944  18.3%     -    3s
     0     0   70.09983    0 1116   85.74371   70.09983  18.2%     -    3s
     0     0   70.09983    0 1113   85.74371   70.09983  18.2%     -    3s
     0     0   70.10637    0 1149   85.74371   70.10637  18.2%     -    3s
     0     0   70.14921    0 1151   85.74371   70.14921  18.2%     -    3s
     0     0   70.15722    0 1146   85.74371   70.15722  18.2%     -    3s
     0     0   70.15854    0 1138   85.74371   70.15854  18.2%     -    3s
     0     0   70.16022    0 1147   85.74371   70.16022  18.2%     -    3s
     0     0   70.16022    0 1074   85.74371   70.16022  18.2%     -    3s
H    0     0                      82.8411460   70.16022  15.3%     -    5s
     0     2   70.16022    0 1074   82.84115   70.16022  15.3%     -    5s
H  721   382                      80.7136073   74.30447  7.94%   496    9s
   851   375   77.06989    7  877   80.71361   74.46450  7.74%   481   10s

Cutting planes:
  Gomory: 9
  Zero half: 245
  RLT: 247

Explored 2057 nodes (820091 simplex iterations) in 12.76 seconds (11.72 work units)
Thread count was 32 (of 128 available processors)

Solution count 9: 80.7136 82.8411 85.7437 ... 640.403

Optimal solution found (tolerance 1.00e-04)
Best objective 8.071360731187e+01, best bound 8.071360731187e+01, gap 0.0000%
